Optimal - objective value 7.45132600
      0 r_0                         0                0.973451
      1 r_1                         1                0.973451
      2 r_2                         0                0.964602
      3 r_3                         0                0.964602
      4 r_4                         0                0.938053
      5 r_5                         0                0.929204
      6 r_6                         0                0.920354
      7 r_7                         0                0.920354
      8 r_8                         0                0.920354
      9 r_9                         0                0.920354
     10 r_10                        0                0.911504
     11 r_11                        0                0.911504
     12 r_12                        0                0.911504
     13 r_13                        1                0.911504
     14 r_14                        1                0.902655
     15 r_15                        0                0.902655
     16 b_0                         1                0.973451
     17 b_1                         0                0.973451
     18 b_2                         0                0.964602
     19 b_3                         0                0.964602
     20 b_4                         1                0.938053
     21 b_5                         1                0.929204
     22 b_6                         0                0.920354
     23 b_7                         0                0.920354
     24 b_8                         0                0.920354
     25 b_9                         0                0.920354
     26 b_10                        1                0.911504
     27 b_11                        0                0.911504
     28 b_12                        1                0.911504
     29 b_13                        0                0.911504
     30 b_14                        0                0.902655
     31 b_15                        0                0.902655
